
List of user-set options:

                                    Name   Value                used
                   hessian_approximation = limited-memory        yes
                           linear_solver = mumps                 yes
                  ma57_automatic_scaling = yes                    no
                                max_iter = 300                   yes
                             mu_strategy = adaptive              yes
                             output_file = Goddard-Rocket-ProblemIPOPTinfo.txt  yes
                             print_level = 5                     yes
                      print_user_options = yes                   yes
                                     tol = 1e-007                yes
This is Ipopt version 3.11.0, running with linear solver mumps.

Number of nonzeros in equality constraint Jacobian...:    86265
Number of nonzeros in inequality constraint Jacobian.:     2095
Number of nonzeros in Lagrangian Hessian.............:        0

Total number of variables............................:     9431
                     variables with only lower bounds:        0
                variables with lower and upper bounds:     9431
                     variables with only upper bounds:        0
Total number of equality constraints.................:     8384
Total number of inequality constraints...............:     1049
        inequality constraints with only lower bounds:        0
   inequality constraints with lower and upper bounds:     1049
        inequality constraints with only upper bounds:        0

iter    objective    inf_pr   inf_du lg(mu)  ||d||  lg(rg) alpha_du alpha_pr  ls
   0 2.8197720e+004 1.85e+000 1.00e+002   0.0 0.00e+000    -  0.00e+000 0.00e+000   0
   1 2.8189931e+004 1.78e+000 9.77e+001  -5.8 1.94e+000   2.2 2.92e-002 2.33e-002h  1
   2 2.8189830e+004 1.77e+000 1.11e+002  -5.8 9.83e-001   4.0 1.02e-001 1.94e-003h  1
   3 2.8189562e+004 1.77e+000 4.99e+003  -5.9 1.29e+000   3.5 8.42e-002 1.95e-003h  1
   4 2.8178243e+004 1.54e+000 4.66e+003  -5.9 1.32e+000   3.5 8.04e-002 7.93e-002h  1
   5 2.8113934e+004 3.41e-001 4.47e+003  -6.0 6.63e+000    -  2.94e-002 3.65e-002h  1
   6 2.8019458e+004 5.89e-002 1.39e+004  -6.0 1.82e+000   2.0 2.75e-003 2.62e-001h  1
   7 2.8019458e+004 5.89e-002 7.95e+011   2.0 1.07e-002  13.9 1.00e+000 1.00e+000h  1
   8r2.8019458e+004 5.89e-002 8.92e+002   3.2 0.00e+000  13.4 0.00e+000 2.77e-007R  6
   9r2.8019458e+004 5.89e-002 9.91e+002  -3.1 1.00e-011  14.0 9.90e-001 1.00e+000f  1
iter    objective    inf_pr   inf_du lg(mu)  ||d||  lg(rg) alpha_du alpha_pr  ls
  10r2.8019458e+004 5.89e-002 3.07e+003  -0.8 9.21e-011  13.5 1.00e+000 1.00e+000f  1
  11r2.8019458e+004 5.89e-002 1.02e+003  -2.7 9.14e-011  13.0 1.00e+000 1.00e+000f  1
  12r2.8019458e+004 5.89e-002 1.00e+003  -4.6 2.70e-010  12.6 1.00e+000 1.00e+000f  1
  13r2.8019458e+004 5.89e-002 1.00e+003  -6.4 1.27e-011  13.9 1.00e+000 1.00e+000f  1
  14r2.8019458e+004 5.89e-002 1.00e+003  -8.4 3.80e-011  13.4 1.00e+000 1.00e+000f  1
  15r2.8019458e+004 5.89e-002 1.00e+003  -9.0 1.14e-010  12.9 1.00e+000 1.00e+000f  1
  16r2.8019458e+004 5.89e-002 1.00e+003  -9.0 3.42e-010  12.5 1.00e+000 1.00e+000f  1
  17r2.8019458e+004 5.89e-002 1.00e+003  -9.0 1.60e-011  13.8 1.00e+000 1.00e+000f  1
  18r2.8019458e+004 5.89e-002 1.00e+003  -9.0 4.81e-011  13.3 1.00e+000 1.00e+000f  1
  19r2.8019458e+004 5.89e-002 1.00e+003  -9.0 1.44e-010  12.8 1.00e+000 1.00e+000f  1
iter    objective    inf_pr   inf_du lg(mu)  ||d||  lg(rg) alpha_du alpha_pr  ls
  20r2.8019458e+004 5.89e-002 1.00e+003  -9.0 4.32e-010  12.4 1.00e+000 1.00e+000f  1
  21r2.8019458e+004 5.89e-002 1.00e+003  -9.0 2.03e-011  13.7 1.00e+000 1.00e+000f  1
  22r2.8019458e+004 5.89e-002 1.00e+003  -9.0 6.08e-011  13.2 1.00e+000 1.00e+000f  1
  23r2.8019458e+004 5.89e-002 1.00e+003  -9.0 1.82e-010  12.7 1.00e+000 1.00e+000f  1
  24r2.8019458e+004 5.89e-002 1.00e+003  -9.0 5.47e-010  12.3 1.00e+000 1.00e+000f  1
  25r2.8019458e+004 5.89e-002 1.00e+003  -9.0 2.57e-011  13.6 1.00e+000 1.00e+000f  1
  26r2.8019458e+004 5.89e-002 1.00e+003  -9.0 7.70e-011  13.1 1.00e+000 1.00e+000f  1
  27r2.8019458e+004 5.89e-002 1.00e+003  -9.0 2.31e-010  12.6 1.00e+000 1.00e+000f  1
  28r2.8019458e+004 5.89e-002 1.00e+003  -9.0 1.08e-011  14.0 1.00e+000 1.00e+000f  1
  29r2.8019458e+004 5.89e-002 1.00e+003  -9.0 3.25e-011  13.5 1.00e+000 1.00e+000f  1
iter    objective    inf_pr   inf_du lg(mu)  ||d||  lg(rg) alpha_du alpha_pr  ls
  30r2.8019458e+004 5.89e-002 1.00e+003  -9.0 9.74e-011  13.0 1.00e+000 1.00e+000f  1
  31r2.8019458e+004 5.89e-002 1.00e+003  -9.0 2.92e-010  12.5 1.00e+000 1.00e+000f  1
  32r2.8019458e+004 5.89e-002 1.00e+003  -9.0 1.37e-011  13.9 1.00e+000 1.00e+000f  1
  33r2.8019458e+004 5.89e-002 1.00e+003  -9.0 4.11e-011  13.4 1.00e+000 1.00e+000f  1
  34r2.8019458e+004 5.89e-002 1.00e+003  -9.0 1.23e-010  12.9 1.00e+000 1.00e+000f  1
  35r2.8019458e+004 5.89e-002 1.00e+003  -9.0 3.70e-010  12.4 1.00e+000 1.00e+000f  1
  36r2.8019458e+004 5.89e-002 1.00e+003  -9.0 1.73e-011  13.8 1.00e+000 1.00e+000f  1
  37r2.8019458e+004 5.89e-002 1.00e+003  -9.0 5.20e-011  13.3 1.00e+000 1.00e+000f  1
  38r2.8019458e+004 5.89e-002 1.00e+003  -9.0 1.56e-010  12.8 1.00e+000 1.00e+000f  1
  39r2.8019458e+004 5.89e-002 1.00e+003  -9.0 4.68e-010  12.3 1.00e+000 1.00e+000f  1
iter    objective    inf_pr   inf_du lg(mu)  ||d||  lg(rg) alpha_du alpha_pr  ls
  40r2.8019458e+004 5.89e-002 1.00e+003  -9.0 2.19e-011  13.7 1.00e+000 1.00e+000f  1
  41r2.8019458e+004 5.89e-002 1.00e+003  -9.0 6.58e-011  13.2 1.00e+000 1.00e+000f  1
  42r2.8019458e+004 5.89e-002 1.00e+003  -9.0 1.97e-010  12.7 1.00e+000 1.00e+000f  1
  43r2.8019458e+004 5.89e-002 1.00e+003  -9.0 5.92e-010  12.2 1.00e+000 1.00e+000f  1
  44r2.8019458e+004 5.89e-002 1.00e+003  -9.0 2.78e-011  13.6 1.00e+000 1.00e+000f  1
  45r2.8019458e+004 5.89e-002 1.00e+003  -9.0 8.33e-011  13.1 1.00e+000 1.00e+000f  1
  46r2.8019458e+004 5.89e-002 1.00e+003  -9.0 2.50e-010  12.6 1.00e+000 1.00e+000f  1
  47r2.8019458e+004 5.89e-002 1.00e+003  -9.0 1.17e-011  13.9 1.00e+000 1.00e+000f  1
  48r2.8019458e+004 5.89e-002 1.00e+003  -9.0 3.52e-011  13.5 1.00e+000 1.00e+000f  1
  49r2.8019458e+004 5.89e-002 1.00e+003  -9.0 1.05e-010  13.0 1.00e+000 1.00e+000f  1
iter    objective    inf_pr   inf_du lg(mu)  ||d||  lg(rg) alpha_du alpha_pr  ls
  50r2.8019458e+004 5.89e-002 1.00e+003  -9.0 3.16e-010  12.5 1.00e+000 1.00e+000f  1
  51r2.8019458e+004 5.89e-002 1.00e+003  -9.0 1.48e-011  13.8 1.00e+000 1.00e+000f  1
  52r2.8019458e+004 5.89e-002 1.00e+003  -9.0 4.45e-011  13.4 1.00e+000 1.00e+000f  1
  53r2.8019458e+004 5.89e-002 1.00e+003  -9.0 1.33e-010  12.9 1.00e+000 1.00e+000f  1
  54r2.8019458e+004 5.89e-002 1.00e+003  -9.0 4.00e-010  12.4 1.00e+000 1.00e+000f  1
  55r2.8019458e+004 5.89e-002 1.00e+003  -9.0 1.88e-011  13.7 1.00e+000 1.00e+000f  1
  56r2.8019458e+004 5.89e-002 1.00e+003  -9.0 5.63e-011  13.2 1.00e+000 1.00e+000f  1
  57r2.8019458e+004 5.89e-002 1.00e+003  -9.0 1.69e-010  12.8 1.00e+000 1.00e+000f  1
  58r2.8019458e+004 5.89e-002 1.00e+003  -9.0 5.07e-010  12.3 1.00e+000 1.00e+000f  1
  59r2.8019458e+004 5.89e-002 1.00e+003  -9.0 2.38e-011  13.6 1.00e+000 1.00e+000f  1
iter    objective    inf_pr   inf_du lg(mu)  ||d||  lg(rg) alpha_du alpha_pr  ls
  60r2.8019458e+004 5.89e-002 1.00e+003  -9.0 7.13e-011  13.1 1.00e+000 1.00e+000f  1
  61r2.8019458e+004 5.89e-002 1.00e+003  -9.0 2.14e-010  12.7 1.00e+000 1.00e+000f  1
  62r2.8019458e+004 5.89e-002 1.00e+003  -9.0 1.00e-011  14.0 1.00e+000 1.00e+000f  1
  63r2.8019458e+004 5.89e-002 1.00e+003  -9.0 3.01e-011  13.5 1.00e+000 1.00e+000f  1
  64r2.8019458e+004 5.89e-002 1.00e+003  -9.0 9.02e-011  13.0 1.00e+000 1.00e+000f  1
  65r2.8019458e+004 5.89e-002 1.00e+003  -9.0 2.71e-010  12.6 1.00e+000 1.00e+000f  1
  66r2.8019458e+004 5.89e-002 1.00e+003  -9.0 1.27e-011  13.9 1.00e+000 1.00e+000f  1
  67r2.8019458e+004 5.89e-002 1.00e+003  -9.0 3.80e-011  13.4 1.00e+000 1.00e+000f  1
  68r2.8019458e+004 5.89e-002 1.00e+003  -9.0 1.14e-010  12.9 1.00e+000 1.00e+000f  1
  69r2.8019458e+004 5.89e-002 1.00e+003  -9.0 3.42e-010  12.5 1.00e+000 1.00e+000f  1
iter    objective    inf_pr   inf_du lg(mu)  ||d||  lg(rg) alpha_du alpha_pr  ls
  70r2.8019458e+004 5.89e-002 1.00e+003  -9.0 1.61e-011  13.8 1.00e+000 1.00e+000f  1
  71r2.8019458e+004 5.89e-002 1.00e+003  -9.0 4.82e-011  13.3 1.00e+000 1.00e+000f  1
  72r2.8019458e+004 5.89e-002 1.00e+003  -9.0 1.44e-010  12.8 1.00e+000 1.00e+000f  1
  73r2.8019458e+004 5.89e-002 1.00e+003  -9.0 4.33e-010  12.4 1.00e+000 1.00e+000f  1
  74r2.8019458e+004 5.89e-002 1.00e+003  -9.0 2.03e-011  13.7 1.00e+000 1.00e+000f  1
  75r2.8019458e+004 5.89e-002 1.00e+003  -9.0 6.09e-011  13.2 1.00e+000 1.00e+000f  1
  76r2.8019458e+004 5.89e-002 1.00e+003  -9.0 1.83e-010  12.7 1.00e+000 1.00e+000f  1
  77r2.8019458e+004 5.89e-002 1.00e+003  -9.0 5.49e-010  12.3 1.00e+000 1.00e+000f  1
  78r2.8019458e+004 5.89e-002 1.00e+003  -9.0 2.57e-011  13.6 1.00e+000 1.00e+000f  1
  79r2.8019458e+004 5.89e-002 1.00e+003  -9.0 7.71e-011  13.1 1.00e+000 1.00e+000f  1
iter    objective    inf_pr   inf_du lg(mu)  ||d||  lg(rg) alpha_du alpha_pr  ls
  80r2.8019458e+004 5.89e-002 1.00e+003  -9.0 2.31e-010  12.6 1.00e+000 1.00e+000f  1
  81r2.8019458e+004 5.89e-002 1.00e+003  -9.0 1.08e-011  14.0 1.00e+000 1.00e+000f  1
  82r2.8019458e+004 5.89e-002 1.00e+003  -9.0 3.25e-011  13.5 1.00e+000 1.00e+000f  1
  83r2.8019458e+004 5.89e-002 1.00e+003  -9.0 9.76e-011  13.0 1.00e+000 1.00e+000f  1
  84r2.8019458e+004 5.89e-002 1.00e+003  -9.0 2.93e-010  12.5 1.00e+000 1.00e+000f  1
  85r2.8019458e+004 5.89e-002 1.00e+003  -9.0 1.37e-011  13.9 1.00e+000 1.00e+000f  1
  86r2.8019458e+004 5.89e-002 1.00e+003  -9.0 4.12e-011  13.4 1.00e+000 1.00e+000f  1
  87r2.8019458e+004 5.89e-002 1.00e+003  -9.0 1.24e-010  12.9 1.00e+000 1.00e+000f  1
  88r2.8019458e+004 5.89e-002 1.00e+003  -9.0 3.71e-010  12.4 1.00e+000 1.00e+000f  1
  89r2.8019458e+004 5.89e-002 1.00e+003  -9.0 1.74e-011  13.8 1.00e+000 1.00e+000f  1
iter    objective    inf_pr   inf_du lg(mu)  ||d||  lg(rg) alpha_du alpha_pr  ls
  90r2.8019458e+004 5.89e-002 1.00e+003  -9.0 5.21e-011  13.3 1.00e+000 1.00e+000f  1
  91r2.8019458e+004 5.89e-002 1.00e+003  -9.0 1.56e-010  12.8 1.00e+000 1.00e+000f  1
  92r2.8019458e+004 5.89e-002 1.00e+003  -9.0 4.69e-010  12.3 1.00e+000 1.00e+000f  1
  93r2.8019458e+004 5.89e-002 1.00e+003  -9.0 2.20e-011  13.7 1.00e+000 1.00e+000f  1
  94r2.8019458e+004 5.89e-002 1.00e+003  -9.0 6.60e-011  13.2 1.00e+000 1.00e+000f  1
  95r2.8019458e+004 5.89e-002 1.00e+003  -9.0 1.98e-010  12.7 1.00e+000 1.00e+000f  1
  96r2.8019458e+004 5.89e-002 1.00e+003  -9.0 5.94e-010  12.2 1.00e+000 1.00e+000f  1
  97r2.8019458e+004 5.89e-002 1.00e+003  -9.0 2.78e-011  13.6 1.00e+000 1.00e+000f  1
  98r2.8019458e+004 5.89e-002 1.00e+003  -9.0 8.35e-011  13.1 1.00e+000 1.00e+000f  1
  99r2.8019458e+004 5.89e-002 1.00e+003  -9.0 2.50e-010  12.6 1.00e+000 1.00e+000f  1
iter    objective    inf_pr   inf_du lg(mu)  ||d||  lg(rg) alpha_du alpha_pr  ls
 100r2.8019458e+004 5.89e-002 1.00e+003  -9.0 1.17e-011  13.9 1.00e+000 1.00e+000f  1
 101r2.8019458e+004 5.89e-002 1.00e+003  -9.0 3.52e-011  13.5 1.00e+000 1.00e+000f  1
 102r2.8019458e+004 5.89e-002 1.00e+003  -9.0 1.06e-010  13.0 1.00e+000 1.00e+000f  1
 103r2.8019458e+004 5.89e-002 1.00e+003  -9.0 3.17e-010  12.5 1.00e+000 1.00e+000f  1
 104r2.8019458e+004 5.89e-002 1.00e+003  -9.0 1.49e-011  13.8 1.00e+000 1.00e+000f  1
 105r2.8019458e+004 5.89e-002 1.00e+003  -9.0 4.46e-011  13.4 1.00e+000 1.00e+000f  1
 106r2.8019458e+004 5.89e-002 1.00e+003  -9.0 1.34e-010  12.9 1.00e+000 1.00e+000f  1
 107r2.8019458e+004 5.89e-002 1.00e+003  -9.0 4.01e-010  12.4 1.00e+000 1.00e+000f  1
 108r2.8019458e+004 5.89e-002 1.00e+003  -9.0 1.88e-011  13.7 1.00e+000 1.00e+000f  1
 109r2.8019458e+004 5.89e-002 1.00e+003  -9.0 5.64e-011  13.2 1.00e+000 1.00e+000f  1
iter    objective    inf_pr   inf_du lg(mu)  ||d||  lg(rg) alpha_du alpha_pr  ls
 110r2.8019458e+004 5.89e-002 1.00e+003  -9.0 1.69e-010  12.8 1.00e+000 1.00e+000f  1
 111r2.8019458e+004 5.89e-002 1.00e+003  -9.0 5.08e-010  12.3 1.00e+000 1.00e+000f  1
 112r2.8019458e+004 5.89e-002 1.00e+003  -9.0 2.38e-011  13.6 1.00e+000 1.00e+000f  1
 113r2.8019458e+004 5.89e-002 1.00e+003  -9.0 7.14e-011  13.1 1.00e+000 1.00e+000f  1
 114r2.8019458e+004 5.89e-002 1.00e+003  -9.0 2.14e-010  12.7 1.00e+000 1.00e+000f  1
 115r2.8019458e+004 5.89e-002 1.00e+003  -9.0 1.00e-011  14.0 1.00e+000 1.00e+000f  1
 116r2.8019458e+004 5.89e-002 1.00e+003  -9.0 3.01e-011  13.5 1.00e+000 1.00e+000f  1
 117r2.8019458e+004 5.89e-002 1.00e+003  -9.0 9.04e-011  13.0 1.00e+000 1.00e+000f  1
 118r2.8019458e+004 5.89e-002 1.00e+003  -9.0 2.71e-010  12.6 1.00e+000 1.00e+000f  1
 119r2.8019458e+004 5.89e-002 1.00e+003  -9.0 1.27e-011  13.9 1.00e+000 1.00e+000f  1
iter    objective    inf_pr   inf_du lg(mu)  ||d||  lg(rg) alpha_du alpha_pr  ls
 120r2.8019458e+004 5.89e-002 1.00e+003  -9.0 3.81e-011  13.4 1.00e+000 1.00e+000f  1
 121r2.8019458e+004 5.89e-002 1.00e+003  -9.0 1.14e-010  12.9 1.00e+000 1.00e+000f  1
 122r2.8019458e+004 5.89e-002 1.00e+003  -9.0 3.43e-010  12.5 1.00e+000 1.00e+000f  1
 123r2.8019458e+004 5.89e-002 1.00e+003  -9.0 1.61e-011  13.8 1.00e+000 1.00e+000f  1
 124r2.8019458e+004 5.89e-002 1.00e+003  -9.0 4.83e-011  13.3 1.00e+000 1.00e+000f  1
 125r2.8019458e+004 5.89e-002 1.00e+003  -9.0 1.45e-010  12.8 1.00e+000 1.00e+000f  1
 126r2.8019458e+004 5.89e-002 1.00e+003  -9.0 4.34e-010  12.4 1.00e+000 1.00e+000f  1
 127r2.8019458e+004 5.89e-002 1.00e+003  -9.0 2.04e-011  13.7 1.00e+000 1.00e+000f  1
 128r2.8019458e+004 5.89e-002 1.00e+003  -9.0 6.11e-011  13.2 1.00e+000 1.00e+000f  1
 129r2.8019458e+004 5.89e-002 1.00e+003  -9.0 1.83e-010  12.7 1.00e+000 1.00e+000f  1
iter    objective    inf_pr   inf_du lg(mu)  ||d||  lg(rg) alpha_du alpha_pr  ls
 130r2.8019458e+004 5.89e-002 1.00e+003  -9.0 5.50e-010  12.3 1.00e+000 1.00e+000f  1
 131r2.8019458e+004 5.89e-002 1.00e+003  -9.0 2.58e-011  13.6 1.00e+000 1.00e+000f  1
 132r2.8019458e+004 5.89e-002 1.00e+003  -9.0 7.73e-011  13.1 1.00e+000 1.00e+000f  1
 133r2.8019458e+004 5.89e-002 1.00e+003  -9.0 2.32e-010  12.6 1.00e+000 1.00e+000f  1
 134r2.8019458e+004 5.89e-002 1.00e+003  -9.0 1.09e-011  14.0 1.00e+000 1.00e+000f  1
 135r2.8019458e+004 5.89e-002 1.00e+003  -9.0 3.26e-011  13.5 1.00e+000 1.00e+000f  1
 136r2.8019458e+004 5.89e-002 1.00e+003  -9.0 9.78e-011  13.0 1.00e+000 1.00e+000f  1
 137r2.8019458e+004 5.89e-002 1.00e+003  -9.0 2.93e-010  12.5 1.00e+000 1.00e+000f  1
 138r2.8019458e+004 5.89e-002 1.00e+003  -9.0 1.38e-011  13.9 1.00e+000 1.00e+000f  1
 139r2.8019458e+004 5.89e-002 1.00e+003  -9.0 4.13e-011  13.4 1.00e+000 1.00e+000f  1
iter    objective    inf_pr   inf_du lg(mu)  ||d||  lg(rg) alpha_du alpha_pr  ls
 140r2.8019458e+004 5.89e-002 1.00e+003  -9.0 1.24e-010  12.9 1.00e+000 1.00e+000f  1
 141r2.8019458e+004 5.89e-002 1.00e+003  -9.0 3.71e-010  12.4 1.00e+000 1.00e+000f  1
 142r2.8019458e+004 5.89e-002 1.00e+003  -9.0 1.74e-011  13.8 1.00e+000 1.00e+000f  1
 143r2.8019458e+004 5.89e-002 1.00e+003  -9.0 5.22e-011  13.3 1.00e+000 1.00e+000f  1
 144r2.8019458e+004 5.89e-002 1.00e+003  -9.0 1.57e-010  12.8 1.00e+000 1.00e+000f  1
 145r2.8019458e+004 5.89e-002 1.00e+003  -9.0 4.70e-010  12.3 1.00e+000 1.00e+000f  1
 146r2.8019458e+004 5.89e-002 1.00e+003  -9.0 2.20e-011  13.7 1.00e+000 1.00e+000f  1
 147r2.8019458e+004 5.89e-002 1.00e+003  -9.0 6.61e-011  13.2 1.00e+000 1.00e+000f  1
 148r2.8019458e+004 5.89e-002 1.00e+003  -9.0 1.98e-010  12.7 1.00e+000 1.00e+000f  1
 149r2.8019458e+004 5.89e-002 1.00e+003  -9.0 5.95e-010  12.2 1.00e+000 1.00e+000f  1
iter    objective    inf_pr   inf_du lg(mu)  ||d||  lg(rg) alpha_du alpha_pr  ls
 150r2.8019458e+004 5.89e-002 1.00e+003  -9.0 2.79e-011  13.6 1.00e+000 1.00e+000f  1
 151r2.8019458e+004 5.89e-002 1.00e+003  -9.0 8.37e-011  13.1 1.00e+000 1.00e+000f  1
 152r2.8019458e+004 5.89e-002 1.00e+003  -9.0 2.51e-010  12.6 1.00e+000 1.00e+000f  1
 153r2.8019458e+004 5.89e-002 1.00e+003  -9.0 1.18e-011  13.9 1.00e+000 1.00e+000f  1
 154r2.8019458e+004 5.89e-002 1.00e+003  -9.0 3.53e-011  13.5 1.00e+000 1.00e+000f  1
 155r2.8019458e+004 5.89e-002 1.00e+003  -9.0 1.06e-010  13.0 1.00e+000 1.00e+000f  1
 156r2.8019458e+004 5.89e-002 1.00e+003  -9.0 3.18e-010  12.5 1.00e+000 1.00e+000f  1
 157r2.8019458e+004 5.89e-002 1.00e+003  -9.0 1.49e-011  13.8 1.00e+000 1.00e+000f  1
 158r2.8019458e+004 5.89e-002 1.00e+003  -9.0 4.47e-011  13.3 1.00e+000 1.00e+000f  1
 159r2.8019458e+004 5.89e-002 1.00e+003  -9.0 1.34e-010  12.9 1.00e+000 1.00e+000f  1
iter    objective    inf_pr   inf_du lg(mu)  ||d||  lg(rg) alpha_du alpha_pr  ls
 160r2.8019458e+004 5.89e-002 1.00e+003  -9.0 4.02e-010  12.4 1.00e+000 1.00e+000f  1
 161r2.8019458e+004 5.89e-002 1.00e+003  -9.0 1.88e-011  13.7 1.00e+000 1.00e+000f  1
 162r2.8019458e+004 5.89e-002 1.00e+003  -9.0 5.65e-011  13.2 1.00e+000 1.00e+000f  1
 163r2.8019458e+004 5.89e-002 1.00e+003  -9.0 1.70e-010  12.8 1.00e+000 1.00e+000f  1
 164r2.8019458e+004 5.89e-002 1.00e+003  -9.0 5.09e-010  12.3 1.00e+000 1.00e+000f  1
 165r2.8019458e+004 5.89e-002 1.00e+003  -9.0 2.39e-011  13.6 1.00e+000 1.00e+000f  1
 166r2.8019458e+004 5.89e-002 1.00e+003  -9.0 7.16e-011  13.1 1.00e+000 1.00e+000f  1
 167r2.8019458e+004 5.89e-002 1.00e+003  -9.0 2.15e-010  12.7 1.00e+000 1.00e+000f  1
 168r2.8019458e+004 5.89e-002 1.00e+003  -9.0 1.01e-011  14.0 1.00e+000 1.00e+000f  1
 169r2.8019458e+004 5.89e-002 1.00e+003  -9.0 3.02e-011  13.5 1.00e+000 1.00e+000f  1
iter    objective    inf_pr   inf_du lg(mu)  ||d||  lg(rg) alpha_du alpha_pr  ls
 170r2.8019458e+004 5.89e-002 1.00e+003  -9.0 9.06e-011  13.0 1.00e+000 1.00e+000f  1
 171r2.8019458e+004 5.89e-002 1.00e+003  -9.0 2.72e-010  12.6 1.00e+000 1.00e+000f  1
 172r2.8019458e+004 5.89e-002 1.00e+003  -9.0 1.27e-011  13.9 1.00e+000 1.00e+000f  1
 173r2.8019458e+004 5.89e-002 1.00e+003  -9.0 3.82e-011  13.4 1.00e+000 1.00e+000f  1
 174r2.8019458e+004 5.89e-002 1.00e+003  -9.0 1.15e-010  12.9 1.00e+000 1.00e+000f  1
 175r2.8019458e+004 5.89e-002 1.00e+003  -9.0 3.44e-010  12.5 1.00e+000 1.00e+000f  1
 176r2.8019458e+004 5.89e-002 1.00e+003  -9.0 1.61e-011  13.8 1.00e+000 1.00e+000f  1
 177r2.8019458e+004 5.89e-002 1.00e+003  -9.0 4.84e-011  13.3 1.00e+000 1.00e+000f  1
 178r2.8019458e+004 5.89e-002 1.00e+003  -9.0 1.45e-010  12.8 1.00e+000 1.00e+000f  1
 179r2.8019458e+004 5.89e-002 1.00e+003  -9.0 4.35e-010  12.4 1.00e+000 1.00e+000f  1
iter    objective    inf_pr   inf_du lg(mu)  ||d||  lg(rg) alpha_du alpha_pr  ls
 180r2.8019458e+004 5.89e-002 1.00e+003  -9.0 2.04e-011  13.7 1.00e+000 1.00e+000f  1
 181r2.8019458e+004 5.89e-002 1.00e+003  -9.0 6.12e-011  13.2 1.00e+000 1.00e+000f  1
 182r2.8019458e+004 5.89e-002 1.00e+003  -9.0 1.84e-010  12.7 1.00e+000 1.00e+000f  1
 183r2.8019458e+004 5.89e-002 1.00e+003  -9.0 5.51e-010  12.3 1.00e+000 1.00e+000f  1
 184r2.8019458e+004 5.89e-002 1.00e+003  -9.0 2.58e-011  13.6 1.00e+000 1.00e+000f  1
 185r2.8019458e+004 5.89e-002 1.00e+003  -9.0 7.75e-011  13.1 1.00e+000 1.00e+000f  1
 186r2.8019458e+004 5.89e-002 1.00e+003  -9.0 2.32e-010  12.6 1.00e+000 1.00e+000f  1
 187r2.8019458e+004 5.89e-002 1.00e+003  -9.0 1.09e-011  14.0 1.00e+000 1.00e+000f  1
 188r2.8019458e+004 5.89e-002 1.00e+003  -9.0 3.27e-011  13.5 1.00e+000 1.00e+000f  1
 189r2.8019458e+004 5.89e-002 1.00e+003  -9.0 9.80e-011  13.0 1.00e+000 1.00e+000f  1
iter    objective    inf_pr   inf_du lg(mu)  ||d||  lg(rg) alpha_du alpha_pr  ls
 190r2.8019458e+004 5.89e-002 1.00e+003  -9.0 2.94e-010  12.5 1.00e+000 1.00e+000f  1
 191r2.8019458e+004 5.89e-002 1.00e+003  -9.0 1.38e-011  13.9 1.00e+000 1.00e+000f  1
 192r2.8019458e+004 5.89e-002 1.00e+003  -9.0 4.14e-011  13.4 1.00e+000 1.00e+000f  1
 193r2.8019458e+004 5.89e-002 1.00e+003  -9.0 1.24e-010  12.9 1.00e+000 1.00e+000f  1
 194r2.8019458e+004 5.89e-002 1.00e+003  -9.0 3.72e-010  12.4 1.00e+000 1.00e+000f  1
 195r2.8019458e+004 5.89e-002 1.00e+003  -9.0 1.74e-011  13.8 1.00e+000 1.00e+000f  1
 196r2.8019458e+004 5.89e-002 1.00e+003  -9.0 5.23e-011  13.3 1.00e+000 1.00e+000f  1
 197r2.8019458e+004 5.89e-002 1.00e+003  -9.0 1.57e-010  12.8 1.00e+000 1.00e+000f  1
 198r2.8019458e+004 5.89e-002 1.00e+003  -9.0 4.71e-010  12.3 1.00e+000 1.00e+000f  1
 199r2.8019458e+004 5.89e-002 1.00e+003  -9.0 2.21e-011  13.7 1.00e+000 1.00e+000f  1
iter    objective    inf_pr   inf_du lg(mu)  ||d||  lg(rg) alpha_du alpha_pr  ls
 200r2.8019458e+004 5.89e-002 1.00e+003  -9.0 6.62e-011  13.2 1.00e+000 1.00e+000f  1
 201r2.8019458e+004 5.89e-002 1.00e+003  -9.0 1.99e-010  12.7 1.00e+000 1.00e+000f  1
 202r2.8019458e+004 5.89e-002 1.00e+003  -9.0 5.96e-010  12.2 1.00e+000 1.00e+000f  1
 203r2.8019458e+004 5.89e-002 1.00e+003  -9.0 2.79e-011  13.6 1.00e+000 1.00e+000f  1
 204r2.8019458e+004 5.89e-002 1.00e+003  -9.0 8.38e-011  13.1 1.00e+000 1.00e+000f  1
 205r2.8019458e+004 5.89e-002 1.00e+003  -9.0 2.52e-010  12.6 1.00e+000 1.00e+000f  1
 206r2.8019458e+004 5.89e-002 1.00e+003  -9.0 1.18e-011  13.9 1.00e+000 1.00e+000f  1
 207r2.8019458e+004 5.89e-002 1.00e+003  -9.0 3.54e-011  13.5 1.00e+000 1.00e+000f  1
 208r2.8019458e+004 5.89e-002 1.00e+003  -9.0 1.06e-010  13.0 1.00e+000 1.00e+000f  1
 209r2.8019458e+004 5.89e-002 1.00e+003  -9.0 3.18e-010  12.5 1.00e+000 1.00e+000f  1
iter    objective    inf_pr   inf_du lg(mu)  ||d||  lg(rg) alpha_du alpha_pr  ls
 210r2.8019458e+004 5.89e-002 1.00e+003  -9.0 1.49e-011  13.8 1.00e+000 1.00e+000f  1
 211r2.8019458e+004 5.89e-002 1.00e+003  -9.0 4.48e-011  13.3 1.00e+000 1.00e+000f  1
 212r2.8019458e+004 5.89e-002 1.00e+003  -9.0 1.34e-010  12.9 1.00e+000 1.00e+000f  1
 213r2.8019458e+004 5.89e-002 1.00e+003  -9.0 4.03e-010  12.4 1.00e+000 1.00e+000f  1
 214r2.8019458e+004 5.89e-002 1.00e+003  -9.0 1.89e-011  13.7 1.00e+000 1.00e+000f  1
 215r2.8019458e+004 5.89e-002 1.00e+003  -9.0 5.67e-011  13.2 1.00e+000 1.00e+000f  1
 216r2.8019458e+004 5.89e-002 1.00e+003  -9.0 1.70e-010  12.8 1.00e+000 1.00e+000f  1
 217r2.8019458e+004 5.89e-002 1.00e+003  -9.0 5.10e-010  12.3 1.00e+000 1.00e+000f  1
 218r2.8019458e+004 5.89e-002 1.00e+003  -9.0 2.39e-011  13.6 1.00e+000 1.00e+000f  1
 219r2.8019458e+004 5.89e-002 1.00e+003  -9.0 7.17e-011  13.1 1.00e+000 1.00e+000f  1
iter    objective    inf_pr   inf_du lg(mu)  ||d||  lg(rg) alpha_du alpha_pr  ls
 220r2.8019458e+004 5.89e-002 1.00e+003  -9.0 2.15e-010  12.7 1.00e+000 1.00e+000f  1
 221r2.8019458e+004 5.89e-002 1.00e+003  -9.0 1.01e-011  14.0 1.00e+000 1.00e+000f  1
 222r2.8019458e+004 5.89e-002 1.00e+003  -9.0 3.03e-011  13.5 1.00e+000 1.00e+000f  1
 223r2.8019458e+004 5.89e-002 1.00e+003  -9.0 9.08e-011  13.0 1.00e+000 1.00e+000f  1
 224r2.8019458e+004 5.89e-002 1.00e+003  -9.0 2.72e-010  12.6 1.00e+000 1.00e+000f  1
 225r2.8019458e+004 5.89e-002 1.00e+003  -9.0 1.28e-011  13.9 1.00e+000 1.00e+000f  1
 226r2.8019458e+004 5.89e-002 1.00e+003  -9.0 3.83e-011  13.4 1.00e+000 1.00e+000f  1
 227r2.8019458e+004 5.89e-002 1.00e+003  -9.0 1.15e-010  12.9 1.00e+000 1.00e+000f  1
 228r2.8019458e+004 5.89e-002 1.00e+003  -9.0 3.45e-010  12.5 1.00e+000 1.00e+000f  1
 229r2.8019458e+004 5.89e-002 1.00e+003  -9.0 1.62e-011  13.8 1.00e+000 1.00e+000f  1
iter    objective    inf_pr   inf_du lg(mu)  ||d||  lg(rg) alpha_du alpha_pr  ls
 230r2.8019458e+004 5.89e-002 1.00e+003  -9.0 4.85e-011  13.3 1.00e+000 1.00e+000f  1
 231r2.8019458e+004 5.89e-002 1.00e+003  -9.0 1.45e-010  12.8 1.00e+000 1.00e+000f  1
 232r2.8019458e+004 5.89e-002 1.00e+003  -9.0 4.36e-010  12.4 1.00e+000 1.00e+000f  1
 233r2.8019458e+004 5.89e-002 1.00e+003  -9.0 2.04e-011  13.7 1.00e+000 1.00e+000f  1
 234r2.8019458e+004 5.89e-002 1.00e+003  -9.0 6.13e-011  13.2 1.00e+000 1.00e+000f  1
 235r2.8019458e+004 5.89e-002 1.00e+003  -9.0 1.84e-010  12.7 1.00e+000 1.00e+000f  1
 236r2.8019458e+004 5.89e-002 1.00e+003  -9.0 5.52e-010  12.3 1.00e+000 1.00e+000f  1
 237r2.8019458e+004 5.89e-002 1.00e+003  -9.0 2.59e-011  13.6 1.00e+000 1.00e+000f  1
 238r2.8019458e+004 5.89e-002 1.00e+003  -9.0 7.76e-011  13.1 1.00e+000 1.00e+000f  1
 239r2.8019458e+004 5.89e-002 1.00e+003  -9.0 2.33e-010  12.6 1.00e+000 1.00e+000f  1
iter    objective    inf_pr   inf_du lg(mu)  ||d||  lg(rg) alpha_du alpha_pr  ls
 240r2.8019458e+004 5.89e-002 1.00e+003  -9.0 1.09e-011  14.0 1.00e+000 1.00e+000f  1
 241r2.8019458e+004 5.89e-002 1.00e+003  -9.0 3.27e-011  13.5 1.00e+000 1.00e+000f  1
 242r2.8019458e+004 5.89e-002 1.00e+003  -9.0 9.82e-011  13.0 1.00e+000 1.00e+000f  1
 243r2.8019458e+004 5.89e-002 1.00e+003  -9.0 2.95e-010  12.5 1.00e+000 1.00e+000f  1
 244r2.8019458e+004 5.89e-002 1.00e+003  -9.0 1.38e-011  13.9 1.00e+000 1.00e+000f  1
 245r2.8019458e+004 5.89e-002 1.00e+003  -9.0 4.14e-011  13.4 1.00e+000 1.00e+000f  1
 246r2.8019458e+004 5.89e-002 1.00e+003  -9.0 1.24e-010  12.9 1.00e+000 1.00e+000f  1
 247r2.8019458e+004 5.89e-002 1.00e+003  -9.0 3.73e-010  12.4 1.00e+000 1.00e+000f  1
 248r2.8019458e+004 5.89e-002 1.00e+003  -9.0 1.75e-011  13.8 1.00e+000 1.00e+000f  1
 249r2.8019458e+004 5.89e-002 1.00e+003  -9.0 5.25e-011  13.3 1.00e+000 1.00e+000f  1
iter    objective    inf_pr   inf_du lg(mu)  ||d||  lg(rg) alpha_du alpha_pr  ls
 250r2.8019458e+004 5.89e-002 1.00e+003  -9.0 1.57e-010  12.8 1.00e+000 1.00e+000f  1
 251r2.8019458e+004 5.89e-002 1.00e+003  -9.0 4.72e-010  12.3 1.00e+000 1.00e+000f  1
 252r2.8019458e+004 5.89e-002 1.00e+003  -9.0 2.21e-011  13.7 1.00e+000 1.00e+000f  1
 253r2.8019458e+004 5.89e-002 1.00e+003  -9.0 6.64e-011  13.2 1.00e+000 1.00e+000f  1
 254r2.8019458e+004 5.89e-002 1.00e+003  -9.0 1.99e-010  12.7 1.00e+000 1.00e+000f  1
 255r2.8019458e+004 5.89e-002 1.00e+003  -9.0 5.97e-010  12.2 1.00e+000 1.00e+000f  1
 256r2.8019458e+004 5.89e-002 1.00e+003  -9.0 2.80e-011  13.6 1.00e+000 1.00e+000f  1
 257r2.8019458e+004 5.89e-002 1.00e+003  -9.0 8.40e-011  13.1 1.00e+000 1.00e+000f  1
 258r2.8019458e+004 5.89e-002 1.00e+003  -9.0 2.52e-010  12.6 1.00e+000 1.00e+000f  1
 259r2.8019458e+004 5.89e-002 1.00e+003  -9.0 1.18e-011  13.9 1.00e+000 1.00e+000f  1
iter    objective    inf_pr   inf_du lg(mu)  ||d||  lg(rg) alpha_du alpha_pr  ls
 260r2.8019458e+004 5.89e-002 1.00e+003  -9.0 3.54e-011  13.5 1.00e+000 1.00e+000f  1
 261r2.8019458e+004 5.89e-002 1.00e+003  -9.0 1.06e-010  13.0 1.00e+000 1.00e+000f  1
 262r2.8019458e+004 5.89e-002 1.00e+003  -9.0 3.19e-010  12.5 1.00e+000 1.00e+000f  1
 263r2.8019458e+004 5.89e-002 1.00e+003  -9.0 1.50e-011  13.8 1.00e+000 1.00e+000f  1
 264r2.8019458e+004 5.89e-002 1.00e+003  -9.0 4.49e-011  13.3 1.00e+000 1.00e+000f  1
 265r2.8019458e+004 5.89e-002 1.00e+003  -9.0 1.35e-010  12.9 1.00e+000 1.00e+000f  1
 266r2.8019458e+004 5.89e-002 1.00e+003  -9.0 4.04e-010  12.4 1.00e+000 1.00e+000f  1
 267r2.8019458e+004 5.89e-002 1.00e+003  -9.0 1.89e-011  13.7 1.00e+000 1.00e+000f  1
 268r2.8019458e+004 5.89e-002 1.00e+003  -9.0 5.68e-011  13.2 1.00e+000 1.00e+000f  1
 269r2.8019458e+004 5.89e-002 1.00e+003  -9.0 1.70e-010  12.8 1.00e+000 1.00e+000f  1
iter    objective    inf_pr   inf_du lg(mu)  ||d||  lg(rg) alpha_du alpha_pr  ls
 270r2.8019458e+004 5.89e-002 1.00e+003  -9.0 5.11e-010  12.3 1.00e+000 1.00e+000f  1
 271r2.8019458e+004 5.89e-002 1.00e+003  -9.0 2.40e-011  13.6 1.00e+000 1.00e+000f  1
 272r2.8019458e+004 5.89e-002 1.00e+003  -9.0 7.19e-011  13.1 1.00e+000 1.00e+000f  1
 273r2.8019458e+004 5.89e-002 1.00e+003  -9.0 2.16e-010  12.7 1.00e+000 1.00e+000f  1
 274r2.8019458e+004 5.89e-002 1.00e+003  -9.0 1.01e-011  14.0 1.00e+000 1.00e+000f  1
 275r2.8019458e+004 5.89e-002 1.00e+003  -9.0 3.03e-011  13.5 1.00e+000 1.00e+000f  1
 276r2.8019458e+004 5.89e-002 1.00e+003  -9.0 9.09e-011  13.0 1.00e+000 1.00e+000f  1
 277r2.8019458e+004 5.89e-002 1.00e+003  -9.0 2.73e-010  12.6 1.00e+000 1.00e+000f  1
 278r2.8019458e+004 5.89e-002 1.00e+003  -9.0 1.28e-011  13.9 1.00e+000 1.00e+000f  1
 279r2.8019458e+004 5.89e-002 1.00e+003  -9.0 3.84e-011  13.4 1.00e+000 1.00e+000f  1
iter    objective    inf_pr   inf_du lg(mu)  ||d||  lg(rg) alpha_du alpha_pr  ls
 280r2.8019458e+004 5.89e-002 1.00e+003  -9.0 1.15e-010  12.9 1.00e+000 1.00e+000f  1
 281r2.8019458e+004 5.89e-002 1.00e+003  -9.0 3.45e-010  12.5 1.00e+000 1.00e+000f  1
 282r2.8019458e+004 5.89e-002 1.00e+003  -9.0 1.62e-011  13.8 1.00e+000 1.00e+000f  1
 283r2.8019458e+004 5.89e-002 1.00e+003  -9.0 4.86e-011  13.3 1.00e+000 1.00e+000f  1
 284r2.8019458e+004 5.89e-002 1.00e+003  -9.0 1.46e-010  12.8 1.00e+000 1.00e+000f  1
 285r2.8019458e+004 5.89e-002 1.00e+003  -9.0 4.37e-010  12.4 1.00e+000 1.00e+000f  1
 286r2.8019458e+004 5.89e-002 1.00e+003  -9.0 2.05e-011  13.7 1.00e+000 1.00e+000f  1
 287r2.8019458e+004 5.89e-002 1.00e+003  -9.0 6.15e-011  13.2 1.00e+000 1.00e+000f  1
 288r2.8019458e+004 5.89e-002 1.00e+003  -9.0 1.84e-010  12.7 1.00e+000 1.00e+000f  1
 289r2.8019458e+004 5.89e-002 1.00e+003  -9.0 5.53e-010  12.3 1.00e+000 1.00e+000f  1
iter    objective    inf_pr   inf_du lg(mu)  ||d||  lg(rg) alpha_du alpha_pr  ls
 290r2.8019458e+004 5.89e-002 1.00e+003  -9.0 2.59e-011  13.6 1.00e+000 1.00e+000f  1
 291r2.8019458e+004 5.89e-002 1.00e+003  -9.0 7.78e-011  13.1 1.00e+000 1.00e+000f  1
 292r2.8019458e+004 5.89e-002 1.00e+003  -9.0 2.33e-010  12.6 1.00e+000 1.00e+000f  1
 293r2.8019458e+004 5.89e-002 1.00e+003  -9.0 1.09e-011  14.0 1.00e+000 1.00e+000f  1
 294r2.8019458e+004 5.89e-002 1.00e+003  -9.0 3.28e-011  13.5 1.00e+000 1.00e+000f  1
 295r2.8019458e+004 5.89e-002 1.00e+003  -9.0 9.84e-011  13.0 1.00e+000 1.00e+000f  1
 296r2.8019458e+004 5.89e-002 1.00e+003  -9.0 2.95e-010  12.5 1.00e+000 1.00e+000f  1
 297r2.8019458e+004 5.89e-002 1.00e+003  -9.0 1.38e-011  13.9 1.00e+000 1.00e+000f  1
 298r2.8019458e+004 5.89e-002 1.00e+003  -9.0 4.15e-011  13.4 1.00e+000 1.00e+000f  1
 299r2.8019458e+004 5.89e-002 1.00e+003  -9.0 1.25e-010  12.9 1.00e+000 1.00e+000f  1
iter    objective    inf_pr   inf_du lg(mu)  ||d||  lg(rg) alpha_du alpha_pr  ls
 300r2.8019458e+004 5.89e-002 1.00e+003  -9.0 3.74e-010  12.4 1.00e+000 1.00e+000f  1

Number of Iterations....: 300

                                   (scaled)                 (unscaled)
Objective...............:  1.3658105151577166e+002   2.8019457891668611e+004
Dual infeasibility......:  9.9999980061431543e+001   2.0514889872373165e+004
Constraint violation....:  5.8873673351769545e-002   5.8873673351769545e-002
Complementarity.........:  1.0000000000005317e-009   2.0514893962760252e-007
Overall NLP error.......:  9.9999980061431543e+001   2.0514889872373165e+004


Number of objective function evaluations             = 307
Number of objective gradient evaluations             = 10
Number of equality constraint evaluations            = 307
Number of inequality constraint evaluations          = 307
Number of equality constraint Jacobian evaluations   = 302
Number of inequality constraint Jacobian evaluations = 302
Number of Lagrangian Hessian evaluations             = 0
Total CPU secs in IPOPT (w/o function evaluations)   =    149.279
Total CPU secs in NLP function evaluations           =     73.731

EXIT: Maximum Number of Iterations Exceeded.
